c "341097.clq"
p edge 100 1344
e 1 17
e 1 18
e 1 19
e 1 20
e 1 24
e 1 25
e 1 28
e 1 30
e 1 35
e 1 36
e 1 48
e 1 51
e 1 57
e 1 65
e 1 73
e 1 89
e 1 96
e 2 17
e 2 18
e 2 19
e 2 20
e 2 21
e 2 22
e 2 24
e 2 25
e 2 26
e 2 27
e 2 28
e 2 29
e 2 31
e 2 33
e 2 34
e 2 35
e 2 38
e 2 43
e 2 48
e 2 49
e 2 55
e 2 58
e 2 59
e 2 60
e 2 63
e 2 64
e 2 65
e 2 71
e 2 74
e 2 80
e 2 85
e 2 88
e 2 93
e 2 96
e 2 97
e 2 99
e 3 17
e 3 20
e 3 21
e 3 23
e 3 24
e 3 25
e 3 27
e 3 30
e 3 31
e 3 32
e 3 33
e 3 34
e 3 36
e 3 40
e 3 45
e 3 46
e 3 47
e 3 54
e 3 58
e 3 63
e 3 67
e 3 69
e 3 70
e 3 71
e 3 74
e 3 75
e 3 78
e 3 83
e 3 89
e 3 93
e 3 98
e 4 17
e 4 18
e 4 19
e 4 20
e 4 21
e 4 22
e 4 23
e 4 24
e 4 25
e 4 26
e 4 27
e 4 28
e 4 29
e 4 30
e 4 31
e 4 33
e 4 34
e 4 38
e 4 39
e 4 42
e 4 43
e 4 44
e 4 45
e 4 46
e 4 48
e 4 49
e 4 54
e 4 55
e 4 57
e 4 61
e 4 63
e 4 72
e 4 73
e 4 77
e 4 78
e 4 79
e 4 81
e 4 88
e 4 89
e 4 91
e 4 94
e 4 97
e 4 98
e 5 17
e 5 18
e 5 19
e 5 23
e 5 27
e 5 30
e 5 36
e 5 37
e 5 38
e 5 42
e 5 57
e 5 58
e 5 59
e 5 60
e 5 61
e 5 67
e 5 94
e 5 96
e 6 17
e 6 18
e 6 19
e 6 20
e 6 21
e 6 22
e 6 25
e 6 27
e 6 34
e 6 44
e 6 45
e 6 46
e 6 49
e 6 57
e 6 61
e 6 62
e 6 65
e 6 71
e 7 17
e 7 18
e 7 19
e 7 20
e 7 21
e 7 22
e 7 23
e 7 25
e 7 26
e 7 27
e 7 28
e 7 30
e 7 31
e 7 32
e 7 33
e 7 34
e 7 36
e 7 39
e 7 44
e 7 46
e 7 56
e 7 62
e 7 67
e 7 76
e 7 84
e 7 96
e 7 98
e 8 17
e 8 18
e 8 19
e 8 21
e 8 22
e 8 23
e 8 24
e 8 30
e 8 32
e 8 33
e 8 44
e 8 51
e 8 52
e 8 59
e 8 60
e 8 68
e 8 71
e 8 72
e 8 73
e 8 77
e 8 93
e 8 94
e 9 17
e 9 18
e 9 19
e 9 20
e 9 22
e 9 23
e 9 24
e 9 26
e 9 29
e 9 37
e 9 39
e 9 40
e 9 41
e 9 42
e 9 43
e 9 44
e 9 45
e 9 47
e 9 51
e 9 54
e 9 65
e 9 68
e 9 71
e 9 79
e 9 90
e 9 91
e 9 97
e 10 17
e 10 18
e 10 20
e 10 21
e 10 26
e 10 28
e 10 29
e 10 30
e 10 32
e 10 33
e 10 37
e 10 40
e 10 42
e 10 45
e 10 46
e 10 48
e 10 51
e 10 53
e 10 59
e 10 65
e 10 67
e 10 70
e 10 80
e 10 85
e 10 89
e 10 100
e 11 17
e 11 18
e 11 19
e 11 20
e 11 21
e 11 22
e 11 23
e 11 24
e 11 25
e 11 34
e 11 40
e 11 48
e 11 49
e 11 51
e 11 52
e 11 57
e 11 61
e 11 66
e 11 70
e 11 77
e 11 80
e 11 95
e 12 17
e 12 18
e 12 19
e 12 20
e 12 21
e 12 22
e 12 25
e 12 27
e 12 28
e 12 32
e 12 33
e 12 37
e 12 38
e 12 40
e 12 41
e 12 46
e 12 48
e 12 49
e 12 52
e 12 55
e 12 57
e 12 60
e 12 71
e 12 78
e 12 83
e 12 85
e 12 88
e 12 92
e 12 94
e 12 95
e 12 99
e 13 17
e 13 18
e 13 19
e 13 21
e 13 24
e 13 26
e 13 28
e 13 31
e 13 36
e 13 41
e 13 44
e 13 49
e 13 57
e 13 61
e 13 63
e 13 67
e 13 68
e 13 69
e 13 70
e 13 85
e 13 86
e 13 90
e 13 91
e 13 93
e 13 94
e 14 17
e 14 18
e 14 19
e 14 20
e 14 21
e 14 22
e 14 23
e 14 24
e 14 26
e 14 27
e 14 28
e 14 29
e 14 31
e 14 32
e 14 34
e 14 35
e 14 38
e 14 42
e 14 43
e 14 48
e 14 52
e 14 55
e 14 56
e 14 58
e 14 63
e 14 66
e 14 69
e 14 70
e 14 71
e 14 76
e 14 79
e 14 82
e 14 86
e 14 87
e 15 17
e 15 18
e 15 19
e 15 20
e 15 21
e 15 22
e 15 23
e 15 26
e 15 28
e 15 29
e 15 32
e 15 34
e 15 36
e 15 38
e 15 39
e 15 40
e 15 41
e 15 50
e 15 52
e 15 53
e 15 59
e 15 79
e 15 85
e 15 86
e 15 95
e 15 100
e 16 17
e 16 18
e 16 19
e 16 20
e 16 22
e 16 23
e 16 24
e 16 25
e 16 31
e 16 33
e 16 35
e 16 36
e 16 37
e 16 40
e 16 48
e 16 50
e 16 51
e 16 52
e 16 53
e 16 56
e 16 58
e 16 60
e 16 64
e 16 66
e 16 67
e 16 68
e 16 73
e 16 77
e 16 96
e 17 18
e 17 19
e 17 20
e 17 21
e 17 22
e 17 23
e 17 24
e 17 25
e 17 27
e 17 28
e 17 29
e 17 30
e 17 31
e 17 33
e 17 34
e 17 35
e 17 36
e 17 37
e 17 39
e 17 41
e 17 42
e 17 49
e 17 50
e 17 52
e 17 54
e 17 58
e 17 63
e 17 65
e 17 71
e 17 76
e 17 83
e 17 84
e 17 90
e 17 91
e 17 93
e 17 96
e 17 97
e 18 19
e 18 20
e 18 21
e 18 22
e 18 23
e 18 24
e 18 25
e 18 26
e 18 27
e 18 28
e 18 29
e 18 30
e 18 32
e 18 33
e 18 34
e 18 35
e 18 36
e 18 38
e 18 39
e 18 41
e 18 42
e 18 45
e 18 46
e 18 47
e 18 49
e 18 51
e 18 52
e 18 54
e 18 55
e 18 56
e 18 58
e 18 59
e 18 60
e 18 66
e 18 71
e 18 77
e 18 78
e 18 79
e 18 82
e 18 83
e 18 84
e 18 87
e 18 92
e 18 93
e 18 94
e 18 99
e 18 100
e 19 20
e 19 21
e 19 22
e 19 23
e 19 24
e 19 26
e 19 27
e 19 28
e 19 29
e 19 30
e 19 31
e 19 33
e 19 34
e 19 35
e 19 37
e 19 39
e 19 40
e 19 46
e 19 49
e 19 50
e 19 55
e 19 57
e 19 58
e 19 61
e 19 63
e 19 64
e 19 65
e 19 66
e 19 74
e 19 75
e 19 76
e 19 80
e 19 81
e 19 82
e 19 83
e 19 84
e 19 87
e 19 89
e 19 95
e 19 100
e 20 21
e 20 22
e 20 23
e 20 24
e 20 25
e 20 26
e 20 27
e 20 28
e 20 29
e 20 31
e 20 33
e 20 35
e 20 36
e 20 37
e 20 38
e 20 39
e 20 41
e 20 44
e 20 45
e 20 46
e 20 50
e 20 51
e 20 58
e 20 61
e 20 64
e 20 65
e 20 70
e 20 72
e 20 74
e 20 75
e 20 76
e 20 80
e 20 81
e 20 82
e 20 95
e 20 98
e 20 99
e 21 22
e 21 23
e 21 24
e 21 25
e 21 26
e 21 27
e 21 28
e 21 29
e 21 30
e 21 32
e 21 33
e 21 36
e 21 37
e 21 39
e 21 41
e 21 42
e 21 43
e 21 47
e 21 48
e 21 49
e 21 52
e 21 53
e 21 54
e 21 56
e 21 60
e 21 61
e 21 62
e 21 63
e 21 69
e 21 71
e 21 75
e 21 76
e 21 79
e 21 84
e 21 87
e 21 88
e 21 95
e 22 23
e 22 25
e 22 26
e 22 29
e 22 30
e 22 32
e 22 33
e 22 35
e 22 37
e 22 38
e 22 39
e 22 41
e 22 42
e 22 43
e 22 48
e 22 51
e 22 53
e 22 55
e 22 57
e 22 59
e 22 62
e 22 64
e 22 65
e 22 70
e 22 74
e 22 78
e 22 81
e 22 86
e 22 89
e 22 98
e 23 24
e 23 25
e 23 26
e 23 27
e 23 29
e 23 30
e 23 32
e 23 35
e 23 37
e 23 38
e 23 44
e 23 47
e 23 50
e 23 53
e 23 56
e 23 57
e 23 59
e 23 60
e 23 63
e 23 69
e 23 70
e 23 72
e 23 74
e 23 76
e 23 82
e 23 84
e 23 86
e 23 93
e 23 95
e 23 96
e 23 100
e 24 25
e 24 26
e 24 27
e 24 29
e 24 31
e 24 32
e 24 34
e 24 35
e 24 36
e 24 37
e 24 38
e 24 40
e 24 41
e 24 42
e 24 43
e 24 44
e 24 45
e 24 46
e 24 47
e 24 48
e 24 49
e 24 50
e 24 51
e 24 54
e 24 58
e 24 64
e 24 68
e 24 72
e 24 73
e 24 75
e 24 80
e 24 88
e 24 90
e 24 91
e 24 92
e 24 98
e 24 99
e 25 26
e 25 27
e 25 29
e 25 31
e 25 32
e 25 33
e 25 36
e 25 38
e 25 39
e 25 41
e 25 42
e 25 47
e 25 50
e 25 51
e 25 52
e 25 55
e 25 64
e 25 72
e 25 83
e 25 93
e 26 28
e 26 29
e 26 31
e 26 32
e 26 34
e 26 37
e 26 39
e 26 40
e 26 41
e 26 43
e 26 44
e 26 45
e 26 49
e 26 57
e 26 69
e 26 70
e 26 74
e 26 75
e 26 80
e 26 81
e 26 83
e 26 86
e 26 88
e 26 89
e 26 92
e 26 98
e 27 28
e 27 30
e 27 31
e 27 32
e 27 35
e 27 38
e 27 40
e 27 42
e 27 43
e 27 45
e 27 47
e 27 49
e 27 50
e 27 60
e 27 64
e 27 72
e 27 74
e 27 75
e 27 76
e 27 77
e 27 78
e 27 79
e 27 81
e 27 82
e 27 85
e 27 86
e 27 91
e 27 94
e 27 97
e 27 98
e 28 30
e 28 34
e 28 35
e 28 36
e 28 42
e 28 44
e 28 47
e 28 50
e 28 53
e 28 55
e 28 56
e 28 63
e 28 68
e 28 69
e 28 73
e 28 74
e 28 77
e 28 78
e 28 80
e 28 83
e 28 84
e 28 100
e 29 30
e 29 31
e 29 33
e 29 34
e 29 35
e 29 37
e 29 44
e 29 46
e 29 50
e 29 51
e 29 52
e 29 56
e 29 59
e 29 62
e 29 72
e 29 74
e 29 77
e 29 81
e 29 83
e 29 92
e 29 96
e 29 99
e 30 31
e 30 32
e 30 34
e 30 37
e 30 40
e 30 41
e 30 43
e 30 47
e 30 52
e 30 53
e 30 54
e 30 59
e 30 64
e 30 70
e 30 72
e 30 73
e 30 76
e 30 82
e 30 84
e 30 88
e 30 94
e 31 35
e 31 38
e 31 39
e 31 40
e 31 43
e 31 45
e 31 47
e 31 51
e 31 54
e 31 64
e 31 65
e 31 66
e 31 67
e 31 68
e 31 69
e 31 74
e 31 78
e 31 86
e 31 90
e 31 98
e 31 99
e 32 35
e 32 36
e 32 38
e 32 43
e 32 46
e 32 50
e 32 52
e 32 53
e 32 56
e 32 57
e 32 58
e 32 68
e 32 83
e 32 85
e 32 87
e 32 91
e 32 93
e 32 100
e 33 36
e 33 39
e 33 44
e 33 46
e 33 49
e 33 66
e 33 79
e 33 84
e 33 88
e 33 90
e 33 91
e 34 37
e 34 38
e 34 41
e 34 44
e 34 47
e 34 48
e 34 56
e 34 59
e 34 61
e 34 70
e 34 73
e 34 84
e 35 39
e 35 40
e 35 41
e 35 43
e 35 45
e 35 46
e 35 47
e 35 48
e 35 50
e 35 51
e 35 53
e 35 56
e 35 60
e 35 62
e 35 65
e 35 67
e 35 68
e 35 69
e 35 73
e 35 74
e 35 76
e 35 79
e 35 80
e 35 82
e 35 87
e 35 90
e 35 91
e 35 97
e 36 42
e 36 45
e 36 47
e 36 49
e 36 53
e 36 55
e 36 64
e 36 67
e 36 78
e 36 79
e 36 82
e 36 84
e 36 93
e 36 94
e 37 39
e 37 40
e 37 43
e 37 44
e 37 45
e 37 50
e 37 56
e 37 62
e 37 67
e 37 69
e 37 70
e 37 71
e 37 75
e 37 81
e 37 84
e 37 86
e 37 88
e 37 89
e 37 91
e 37 96
e 37 97
e 38 40
e 38 42
e 38 43
e 38 44
e 38 45
e 38 54
e 38 57
e 38 81
e 38 82
e 38 83
e 38 87
e 38 93
e 39 41
e 39 42
e 39 48
e 39 53
e 39 58
e 39 60
e 39 61
e 39 66
e 39 69
e 39 70
e 39 76
e 39 78
e 39 82
e 39 84
e 39 85
e 39 86
e 40 46
e 40 51
e 40 59
e 40 61
e 40 62
e 40 63
e 40 65
e 40 66
e 40 67
e 40 68
e 40 72
e 40 79
e 40 88
e 40 96
e 40 98
e 40 99
e 41 43
e 41 55
e 41 58
e 41 61
e 41 62
e 41 64
e 41 65
e 41 70
e 41 75
e 41 77
e 41 93
e 41 94
e 41 96
e 42 45
e 42 47
e 42 52
e 42 54
e 42 55
e 42 59
e 42 62
e 42 64
e 42 66
e 42 69
e 42 93
e 42 95
e 42 96
e 42 98
e 43 48
e 43 50
e 43 53
e 43 54
e 43 68
e 43 71
e 43 78
e 43 80
e 43 82
e 43 83
e 43 85
e 43 92
e 44 46
e 44 48
e 44 50
e 44 56
e 44 59
e 44 60
e 44 66
e 44 74
e 44 77
e 44 79
e 44 85
e 44 87
e 44 97
e 45 53
e 45 54
e 45 55
e 45 59
e 45 67
e 45 68
e 45 72
e 45 74
e 45 75
e 45 76
e 45 87
e 45 90
e 45 93
e 45 95
e 46 47
e 46 49
e 46 51
e 46 57
e 46 62
e 46 80
e 46 81
e 46 88
e 46 96
e 46 100
e 47 52
e 47 56
e 47 57
e 47 58
e 47 61
e 47 65
e 47 73
e 47 75
e 47 76
e 47 78
e 47 86
e 47 88
e 47 89
e 47 90
e 48 62
e 48 85
e 48 92
e 49 52
e 49 54
e 49 55
e 49 62
e 49 63
e 49 71
e 49 77
e 49 85
e 49 91
e 49 99
e 50 53
e 50 54
e 50 56
e 50 60
e 50 62
e 50 63
e 50 70
e 50 73
e 50 80
e 50 81
e 50 92
e 50 94
e 50 97
e 51 58
e 51 63
e 51 64
e 51 65
e 51 66
e 51 71
e 51 72
e 51 73
e 51 85
e 51 87
e 52 53
e 52 55
e 52 60
e 52 62
e 52 66
e 52 67
e 52 71
e 52 72
e 52 81
e 52 94
e 53 54
e 53 56
e 53 57
e 53 60
e 53 61
e 53 67
e 53 70
e 53 74
e 53 75
e 53 88
e 53 90
e 53 97
e 53 98
e 53 99
e 53 100
e 54 55
e 54 59
e 54 63
e 54 64
e 54 69
e 54 73
e 54 79
e 54 83
e 54 85
e 54 87
e 54 90
e 54 92
e 54 95
e 54 97
e 54 99
e 55 58
e 55 66
e 55 67
e 55 72
e 55 75
e 55 78
e 55 82
e 55 91
e 55 96
e 56 64
e 56 67
e 56 68
e 56 72
e 56 77
e 56 89
e 56 99
e 56 100
e 57 68
e 57 69
e 57 78
e 57 84
e 57 92
e 57 95
e 57 99
e 58 61
e 58 63
e 58 65
e 58 66
e 58 69
e 58 79
e 58 82
e 58 86
e 58 91
e 59 60
e 59 61
e 59 62
e 59 66
e 59 80
e 59 90
e 60 68
e 60 72
e 60 75
e 60 77
e 60 78
e 60 80
e 60 81
e 60 89
e 60 95
e 61 71
e 61 74
e 61 86
e 61 93
e 62 76
e 62 77
e 62 87
e 62 98
e 63 69
e 63 73
e 63 79
e 64 68
e 64 73
e 64 92
e 64 95
e 65 89
e 66 82
e 67 76
e 67 80
e 67 81
e 67 85
e 67 86
e 67 89
e 68 77
e 68 83
e 68 85
e 68 87
e 68 94
e 69 79
e 69 82
e 69 87
e 69 95
e 70 77
e 70 90
e 70 92
e 70 97
e 71 73
e 71 75
e 71 78
e 71 94
e 71 98
e 71 99
e 72 75
e 72 97
e 73 76
e 73 81
e 73 90
e 73 91
e 73 94
e 73 100
e 74 84
e 74 87
e 74 88
e 74 89
e 74 95
e 74 100
e 76 83
e 77 80
e 77 88
e 77 90
e 77 100
e 78 83
e 78 86
e 78 88
e 78 96
e 79 81
e 79 84
e 79 97
e 80 92
e 80 94
e 81 95
e 82 86
e 82 90
e 83 89
e 84 91
e 84 100
e 86 87
e 86 91
e 87 92
e 88 89
e 89 92
e 89 93
e 89 97
e 89 98
e 89 99
e 90 92
e 90 99
e 91 100
e 92 96
e 92 97
e 92 100
e 97 98
